NAME 
ROWS
 N  OBJ
 L  R0      
 L  R1      
 E  R2      
 E  R3      
 E  R4      
 E  R5      
 E  R6      
 E  R7      
 E  R8      
 E  R9      
 E  R10     
 E  R11     
COLUMNS
    MARKER    'MARKER'                 'INTORG'
    I0(4)     OBJ       -11
    I0(4)     R0        73
    I0(4)     R1        189
    I0(4)     R2        7
    I0(4)     R11       1
    I1(5)     OBJ       -146
    I1(5)     R0        193
    I1(5)     R1        73
    I1(5)     R3        17
    I1(5)     R5        7
    I1(5)     R11       1
    I2(4)     OBJ       53
    I2(4)     R0        -75
    I2(4)     R1        -164
    I2(4)     R3        3
    I2(4)     R11       1
    I3(5)     OBJ       -132
    I3(5)     R0        63
    I3(5)     R1        -129
    I3(5)     R3        7
    I3(5)     R5        3
    I3(5)     R11       1
    MARKER    'MARKER'                 'INTEND'
    C4(6)     OBJ       8
    C4(6)     R0        -9
    C4(6)     R1        -2
    C4(6)     R2        15
    C4(6)     R3        19
    C4(6)     R6        -1
    C4(6)     R7        7
    C5(6)     OBJ       2
    C5(6)     R0        -4
    C5(6)     R1        6
    C5(6)     R2        2
    C5(6)     R3        7
    C5(6)     R8        17
    C5(6)     R10       17
    C6(8)     OBJ       8
    C6(8)     R0        -8
    C6(8)     R1        -2
    C6(8)     R2        5
    C6(8)     R3        18
    C6(8)     R4        14
    C6(8)     R7        14
    C6(8)     R8        13
    C6(8)     R9        10
    C7(8)     OBJ       -5
    C7(8)     R0        4
    C7(8)     R1        2
    C7(8)     R2        14
    C7(8)     R3        11
    C7(8)     R4        5
    C7(8)     R5        7
    C7(8)     R8        -1
    C7(8)     R9        9
    C8(8)     OBJ       -7
    C8(8)     R0        -4
    C8(8)     R1        9
    C8(8)     R2        5
    C8(8)     R3        3
    C8(8)     R4        2
    C8(8)     R5        3
    C8(8)     R6        2
    C8(8)     R8        8
    C9(6)     OBJ       6
    C9(6)     R0        -7
    C9(6)     R1        -10
    C9(6)     R2        2
    C9(6)     R4        10
    C9(6)     R5        9
    C9(6)     R9        14
    C10(1)    R2        1
    C11(1)    R3        1
    C12(1)    R4        1
    C13(1)    R5        1
    C14(1)    R6        1
    C15(1)    R7        1
    C16(1)    R8        1
    C17(1)    R9        1
    C18(1)    R10       1
    C19(1)    R11       1
RHS
    RHS1      R0        1.4592307692307693e+02
    RHS1      R1        1.8025274725274724e+02
    RHS1      R2        85
    RHS1      R3        54
    RHS1      R4        98
    RHS1      R5        64
    RHS1      R6        58
    RHS1      R7        52
    RHS1      R8        95
    RHS1      R9        56
    RHS1      R10       57
    RHS1      R11       1
BOUNDS
 UP BND1      I0(4)     2
 UP BND1      I1(5)     2
 UP BND1      I2(4)     2
 UP BND1      I3(5)     2
ENDATA
